c --- [ banner ] -------------------------------------------------------------
c 
c CaDiCaL SAT Solver
c Copyright (c) 2016-2024
c A. Biere, M. Fleury, N. Froleyks, K. Fazekas, F. Pollitt, T. Faller
c JKU Linz, University of Freiburg, TU Wien
c 
c Version 2.1.3 f13d74439a5b5c963ac5b02d05ce93a8098018b8
c g++ (Gentoo 12.3.1_p20230526 p2) 12.3.1 20230526 -Wall -Wextra -O3 -DNDEBUG
c Thu Apr 10 08:26:21 EDT 2025 Linux narval2.narval.calcul.quebec 4.18.0-553.40.1.el8_10.x86_64 x86_64
c 
c --- [ parsing input ] ------------------------------------------------------
c 
c reading DIMACS file from 'cnfs//op_complete_30.cnf'
c opening file to read 'cnfs//op_complete_30.cnf'
c found 'p cnf 870 24825' header
c parsed 24825 clauses in 0.01 seconds process time
c 
c --- [ options ] ------------------------------------------------------------
c 
c all options are set to their default value
c 
c --- [ solving ] ------------------------------------------------------------
c 
c time measured in process time since initialization
c 
c  seconds  reductions  redundant  irredundant
c         MB    restarts       trail     variables
c          level   conflicts       glue      remaining
c 
c *  0.01  6  0 0   0    0    0  0% 0 24825 870 100%
c {  0.01  6  0 0   0    0    0  0% 0 24825 870 100%
c -  0.01  7 52 1   1  308   50 15% 9 24825 870 100%
c -  0.02  8 50 2  13  909  312 19% 9 24825 870 100%
c }  0.02  8 51 2  21 1011  338 19% 9 24825 870 100%
c [  0.02  8  0 2  21 1011  338  0% 0 24825 870 100%
c O  0.02  8 27 2  21 1012  338 13% 0 24825 870 100%
c -  0.03  8 25 3  21 1809  718 18% 14 24825 870 100%
c -  0.05  8 25 4  22 3009 1135 17% 13 24825 870 100%
c ]  0.05  8 25 4  22 3017 1141 17% 13 24825 870 100%
c {  0.05  8 51 4  22 3017 1141 19% 9 24825 870 100%
c F  0.05  8 51 4  23 3018 1142 19% 9 24825 870 100%
c -  0.06  8 53 5  58 4510 1467 22% 8 24825 870 100%
c i  0.07  8 46 5  70 5190 1862 21% 8 24825 869 100%
c i  0.07  8 46 5  70 5203 1869 21% 8 24825 868 100%
c i  0.07  8 46 5  70 5211 1874 21% 8 24825 867 100%
c }  0.07  8 46 5  70 5213 1874 21% 8 24825 863 99%
c 0  0.07  8 46 5  70 5213 1874 21% 8 24825 863 99%
c 
c --- [ result ] -------------------------------------------------------------
c 
s UNSATISFIABLE
c 
c --- [ run-time profiling ] -------------------------------------------------
c 
c process time taken by individual solving procedures
c (percentage relative to process time for solving)
c 
c         0.06   85.92% search
c         0.03   42.94% unstable
c         0.03   42.31% stable
c         0.01   13.89% simplify
c         0.01   11.57% parse
c         0.01    9.04% ternary
c         0.00    2.06% probe
c         0.00    0.61% lucky
c   =================================
c         0.06   88.95% solve
c 
c last line shows process time for solving
c (percentage relative to total process time)
c 
c --- [ statistics ] ---------------------------------------------------------
c 
c chronological:              1331        25.53 %  of conflicts
c conflicts:                  5213     80478.58    per second
c decisions:                 14071    217228.87    per second
c fixed:                         7         0.80 %  of all variables
c learned:                    3620        69.44 %  per conflict
c learned_lits:             113766       100.00 %  learned literals
c minimized:                     0         0.00 %  learned literals
c shrunken:                  17420        15.31 %  learned literals
c minishrunken:               4496         3.95 %  learned literals
c otfs:                        713        13.68 %  of conflict
c propagations:             117943         1.82 M  per second
c reduced:                     737        14.14 %  per conflict
c rephased:                      2      2606.50    interval
c restarts:                     70        74.47    interval
c stabilizing:                   1        38.35 %  of conflicts
c subsumed:                   1039         3.65 %  of all clauses
c strengthened:                679         2.39 %  of all clauses
c 
c seconds are measured in process time for solving
c 
c --- [ resources ] ----------------------------------------------------------
c 
c total process time since initialization:         0.07    seconds
c total real time since initialization:            0.14    seconds
c maximum resident set size of process:            9.21    MB
c 
c --- [ shutting down ] ------------------------------------------------------
c 
c exit 20
